

TIME =   1.000e-01

Nodal Displacements

 Node          U1          U2          U3
    1   0.000e+00   0.000e+00   0.000e+00
    2  -5.608e-07   0.000e+00   0.000e+00
    3  -5.608e-07  -5.608e-07   0.000e+00
    4   0.000e+00  -5.608e-07   0.000e+00
    5  -8.600e-19   4.618e-19   1.934e-06
    6  -5.608e-07  -1.116e-18   1.934e-06
    7  -5.608e-07  -5.608e-07   1.934e-06
    8  -1.487e-18  -5.608e-07   1.934e-06

Element Stress

        S11         S22         S33         S12         S23         S13
Element     1
 -9.987e-05  -9.987e-05   4.001e+07   8.034e-15   9.909e-07  -4.199e-06
 -1.300e-04  -1.300e-04   4.001e+07  -1.613e-09  -6.090e-07   2.043e-06
 -1.846e-04  -1.846e-04   4.001e+07  -3.750e-09   2.486e-06  -6.670e-06
 -1.245e-04  -1.245e-04   4.001e+07  -6.743e-16   8.872e-07  -6.205e-06
 -9.987e-05  -9.987e-05   4.001e+07   6.276e-16  -4.023e-06  -1.630e-07
 -1.601e-04  -1.601e-04   4.001e+07   1.505e-09  -1.140e-05   6.078e-06
 -1.245e-04  -1.245e-04   4.001e+07   9.523e-15   9.515e-06   4.325e-06
 -1.334e-04  -1.334e-04   4.001e+07   2.440e-09   2.142e-06   4.790e-06



TIME =   2.000e-01

Nodal Displacements

 Node          U1          U2          U3
    1   0.000e+00   0.000e+00   0.000e+00
    2  -1.122e-06   0.000e+00   0.000e+00
    3  -1.122e-06  -1.122e-06   0.000e+00
    4   0.000e+00  -1.122e-06   0.000e+00
    5   2.026e-16  -2.021e-16   3.869e-06
    6  -1.122e-06   2.017e-16   3.869e-06
    7  -1.122e-06  -1.122e-06   3.869e-06
    8  -2.008e-16  -1.122e-06   3.869e-06

Element Stress

        S11         S22         S33         S12         S23         S13
Element     1
  1.988e-03   1.934e-03   8.003e+07  -2.561e-07  -5.414e-04   5.426e-04
  1.700e-03   1.757e-03   8.003e+07   7.891e-08  -5.165e-04   5.520e-04
 -6.957e-04  -6.948e-04   8.003e+07   2.643e-05   5.131e-04  -5.339e-04
  4.303e-03   4.303e-03   8.003e+07  -2.853e-05   5.380e-04  -5.359e-04
  4.352e-03   4.351e-03   8.003e+07  -2.906e-05   5.400e-04  -5.564e-04
 -9.669e-04  -9.679e-04   8.003e+07   2.897e-05   5.536e-04  -5.470e-04
  1.831e-03   1.887e-03   8.003e+07  -1.014e-06  -5.481e-04   5.408e-04
  1.584e-03   1.526e-03   8.003e+07   1.297e-07  -5.345e-04   5.389e-04



TIME =   3.000e-01

Nodal Displacements

 Node          U1          U2          U3
    1   0.000e+00   0.000e+00   0.000e+00
    2  -1.683e-06   0.000e+00   0.000e+00
    3  -1.683e-06  -1.683e-06   0.000e+00
    4   0.000e+00  -1.683e-06   0.000e+00
    5  -2.150e-19  -1.358e-18   5.805e-06
    6  -1.683e-06  -1.097e-18   5.805e-06
    7  -1.683e-06  -1.683e-06   5.805e-06
    8  -2.967e-18  -1.683e-06   5.805e-06

Element Stress

        S11         S22         S33         S12         S23         S13
Element     1
 -1.542e-04  -1.542e-04   1.201e+08   7.777e-11  -6.069e-06  -3.730e-06
 -1.419e-04  -1.419e-04   1.201e+08  -5.204e-09  -1.982e-06   4.260e-06
 -1.966e-04  -1.966e-04   1.201e+08   6.272e-09   1.802e-06  -1.100e-05
 -1.392e-04  -1.392e-04   1.201e+08   8.899e-10   5.890e-06   1.102e-06
 -5.436e-05  -5.436e-05   1.201e+08  -1.473e-09  -5.299e-06  -4.456e-06
 -9.677e-05  -9.678e-05   1.201e+08  -1.185e-09   2.920e-06   3.534e-06
 -1.453e-04  -1.453e-04   1.201e+08   4.016e-09  -2.732e-06  -9.134e-07
 -1.330e-04  -1.330e-04   1.201e+08   2.681e-09   5.483e-06   1.119e-05



TIME =   4.000e-01

Nodal Displacements

 Node          U1          U2          U3
    1   0.000e+00   0.000e+00   0.000e+00
    2  -2.244e-06   0.000e+00   0.000e+00
    3  -2.244e-06  -2.244e-06   0.000e+00
    4   0.000e+00  -2.244e-06   0.000e+00
    5  -9.539e-16  -1.491e-16   7.742e-06
    6  -2.244e-06  -7.422e-16   7.742e-06
    7  -2.244e-06  -2.244e-06   7.742e-06
    8   7.049e-16  -2.244e-06   7.742e-06

Element Stress

        S11         S22         S33         S12         S23         S13
Element     1
  1.064e-02   1.052e-02   1.601e+08   4.251e-06  -1.471e-03  -2.994e-03
  1.624e-02   1.368e-02   1.601e+08   8.233e-04   1.257e-03  -2.864e-03
  5.594e-03   5.784e-03   1.601e+08  -5.541e-05  -2.204e-03   1.841e-03
 -6.062e-03  -5.019e-03   1.601e+08   1.695e-03   5.244e-04   7.456e-04
  5.837e-03   5.292e-03   1.601e+08  -3.246e-04  -2.657e-03   1.916e-03
  2.756e-02   2.677e-02   1.601e+08  -7.043e-04  -1.155e-03   2.046e-03
 -8.431e-04  -7.081e-04   1.601e+08  -4.636e-04   2.103e-03   2.030e-04
  3.642e-03   5.760e-03   1.601e+08  -1.558e-04   3.604e-03  -8.928e-04



TIME =   5.000e-01

Nodal Displacements

 Node          U1          U2          U3
    1   0.000e+00   0.000e+00   0.000e+00
    2  -2.806e-06   0.000e+00   0.000e+00
    3  -2.806e-06  -2.806e-06   0.000e+00
    4   0.000e+00  -2.806e-06   0.000e+00
    5  -7.757e-19  -5.670e-19   9.681e-06
    6  -2.806e-06  -3.062e-18   9.681e-06
    7  -2.806e-06  -2.806e-06   9.681e-06
    8   1.565e-19  -2.806e-06   9.681e-06

Element Stress

        S11         S22         S33         S12         S23         S13
Element     1
 -9.834e-05  -9.834e-05   2.002e+08  -5.809e-10  -5.655e-06  -3.257e-06
 -1.503e-04  -1.503e-04   2.002e+08   2.200e-15  -2.171e-06  -2.459e-06
 -2.652e-04  -2.652e-04   2.002e+08  -4.025e-09  -6.191e-07   3.949e-07
 -1.742e-04  -1.742e-04   2.002e+08   6.176e-10   2.867e-06   3.791e-06
 -2.016e-04  -2.016e-04   2.002e+08   3.575e-09  -1.116e-05  -2.659e-07
 -1.503e-04  -1.503e-04   2.002e+08   5.391e-17  -5.048e-06   5.308e-07
 -2.351e-04  -2.351e-04   2.002e+08   1.622e-10   7.819e-06  -1.044e-06
 -1.988e-04  -1.988e-04   2.002e+08   7.197e-10   1.392e-05   2.352e-06



TIME =   6.000e-01

Nodal Displacements

 Node          U1          U2          U3
    1   0.000e+00   0.000e+00   0.000e+00
    2  -3.367e-06   0.000e+00   0.000e+00
    3  -3.367e-06  -3.367e-06   0.000e+00
    4   0.000e+00  -3.367e-06   0.000e+00
    5  -2.027e-18   4.428e-19   1.162e-05
    6  -3.367e-06  -5.553e-18   1.162e-05
    7  -3.367e-06  -3.367e-06   1.162e-05
    8  -2.161e-18  -3.367e-06   1.162e-05

Element Stress

        S11         S22         S33         S12         S23         S13
Element     1
 -1.460e-04  -1.460e-04   2.403e+08  -3.627e-09  -3.249e-06  -8.947e-06
 -1.884e-04  -1.884e-04   2.403e+08  -1.217e-08   1.424e-05   2.865e-06
 -2.035e-04  -2.034e-04   2.403e+08  -5.005e-09  -1.156e-05  -1.045e-05
 -1.801e-04  -1.801e-04   2.403e+08  -4.127e-15   5.927e-06  -3.108e-06
 -1.398e-04  -1.398e-04   2.403e+08   2.752e-09  -2.042e-05  -1.558e-07
 -1.405e-04  -1.405e-04   2.403e+08  -1.137e-09  -7.370e-06   1.166e-05
 -2.220e-04  -2.220e-04   2.403e+08   4.438e-10   4.705e-06   3.932e-07
 -1.433e-04  -1.433e-04   2.403e+08  -8.015e-15   1.774e-05   7.734e-06



TIME =   7.000e-01

Nodal Displacements

 Node          U1          U2          U3
    1   0.000e+00   0.000e+00   0.000e+00
    2  -3.929e-06   0.000e+00   0.000e+00
    3  -3.929e-06  -3.929e-06   0.000e+00
    4   0.000e+00  -3.929e-06   0.000e+00
    5  -3.291e-19  -9.848e-19   1.356e-05
    6  -3.929e-06  -3.474e-18   1.356e-05
    7  -3.929e-06  -3.929e-06   1.356e-05
    8  -3.661e-18  -3.929e-06   1.356e-05

Element Stress

        S11         S22         S33         S12         S23         S13
Element     1
 -1.137e-04  -1.137e-04   2.804e+08  -4.131e-10  -5.789e-06  -3.574e-06
 -1.985e-04  -1.986e-04   2.804e+08  -6.836e-09   1.498e-05   1.678e-05
 -1.773e-04  -1.773e-04   2.804e+08   2.656e-09  -9.284e-06  -1.490e-05
 -2.436e-04  -2.436e-04   2.804e+08  -2.737e-09   1.149e-05   3.924e-06
 -1.444e-04  -1.444e-04   2.804e+08  -3.739e-15  -1.486e-05  -1.105e-05
 -2.258e-04  -2.258e-04   2.804e+08   2.909e-09   4.414e-06   9.307e-06
 -1.467e-04  -1.467e-04   2.804e+08   4.957e-09  -1.012e-05  -9.650e-06
 -8.919e-05  -8.920e-05   2.804e+08   2.664e-09   9.146e-06   9.176e-06



TIME =   8.000e-01

Nodal Displacements

 Node          U1          U2          U3
    1   0.000e+00   0.000e+00   0.000e+00
    2  -4.491e-06   0.000e+00   0.000e+00
    3  -4.491e-06  -4.491e-06   0.000e+00
    4   0.000e+00  -4.491e-06   0.000e+00
    5   1.134e-18   3.629e-19   1.550e-05
    6  -4.491e-06  -2.872e-18   1.550e-05
    7  -4.491e-06  -4.491e-06   1.550e-05
    8  -1.074e-18  -4.491e-06   1.550e-05

Element Stress

        S11         S22         S33         S12         S23         S13
Element     1
 -1.203e-04  -1.203e-04   3.205e+08  -6.054e-10  -3.721e-08   4.536e-06
 -1.688e-04  -1.688e-04   3.205e+08  -2.160e-09   3.867e-06   1.712e-05
 -1.776e-04  -1.776e-04   3.205e+08   8.692e-09   2.962e-06  -4.264e-06
 -2.933e-04  -2.933e-04   3.205e+08   2.739e-09   6.872e-06   3.454e-06
 -1.325e-04  -1.325e-04   3.205e+08   1.599e-09  -1.159e-05  -1.028e-05
 -2.357e-04  -2.358e-04   3.205e+08  -1.474e-09  -1.250e-05   2.296e-06
 -1.900e-04  -1.900e-04   3.205e+08   5.006e-09   5.675e-06  -1.033e-05
 -2.537e-04  -2.537e-04   3.205e+08   7.070e-09   4.748e-06  -2.609e-06



TIME =   9.000e-01

Nodal Displacements

 Node          U1          U2          U3
    1   0.000e+00   0.000e+00   0.000e+00
    2  -5.053e-06   0.000e+00   0.000e+00
    3  -5.053e-06  -5.053e-06   0.000e+00
    4   0.000e+00  -5.053e-06   0.000e+00
    5  -2.885e-19  -1.341e-18   1.745e-05
    6  -5.053e-06  -4.817e-18   1.745e-05
    7  -5.053e-06  -5.053e-06   1.745e-05
    8  -3.389e-18  -5.053e-06   1.745e-05

Element Stress

        S11         S22         S33         S12         S23         S13
Element     1
 -1.838e-04  -1.838e-04   3.606e+08  -6.302e-10  -8.138e-06  -2.876e-06
 -2.201e-04  -2.201e-04   3.606e+08  -7.795e-09  -1.438e-06   1.781e-05
 -2.480e-04  -2.479e-04   3.606e+08   9.190e-10   8.399e-06  -1.416e-05
 -1.843e-04  -1.843e-04   3.606e+08   2.509e-10   1.511e-05   2.471e-06
 -1.659e-04  -1.659e-04   3.606e+08  -3.251e-12  -2.039e-05  -1.073e-05
 -1.565e-04  -1.565e-04   3.606e+08   2.157e-10  -1.771e-05   9.954e-06
 -1.435e-04  -1.435e-04   3.606e+08   2.203e-08   1.071e-05  -9.541e-06
 -1.141e-04  -1.141e-04   3.606e+08   2.932e-09   1.339e-05   7.085e-06



TIME =   1.000e+00

Nodal Displacements

 Node          U1          U2          U3
    1   0.000e+00   0.000e+00   0.000e+00
    2  -1.210e-05   0.000e+00   0.000e+00
    3  -1.210e-05  -1.210e-05   0.000e+00
    4   0.000e+00  -1.210e-05   0.000e+00
    5   9.635e-17   7.398e-17   3.241e-05
    6  -1.210e-05   5.319e-18   3.241e-05
    7  -1.210e-05  -1.210e-05   3.241e-05
    8   7.495e-17  -1.210e-05   3.241e-05

Element Stress

        S11         S22         S33         S12         S23         S13
Element     1
  3.745e-04   3.654e-04   4.013e+08   2.694e-06   1.645e-04   2.489e-04
  1.827e-04   1.827e-04   4.013e+08  -2.300e-09  -2.257e-04   2.416e-05
  4.644e-05  -1.195e-05   4.013e+08   1.504e-05   2.699e-04   1.979e-04
 -1.459e-04  -1.704e-04   4.013e+08   9.159e-06  -1.202e-04  -9.884e-06
 -2.454e-05  -2.971e-05   4.013e+08   1.996e-05   4.236e-05   2.011e-05
  2.506e-05   4.450e-05   4.013e+08   1.307e-05  -3.309e-04  -2.046e-04
 -6.561e-06  -5.724e-05   4.013e+08   4.042e-05   2.866e-04  -3.438e-05
  2.598e-04   2.508e-04   4.013e+08   3.113e-05  -8.663e-05  -2.422e-04

		 *** Successful end of program ***
